RAW/D/fspd-mid/SCA8-7.vrpspd_seed-3.out
1051.2786	68.411	88.792
