RAW/D/fspd-mid/SCA8-7.vrpspd_seed-3.sol
Route #1: 40 16 5 28
Route #2: 27 22 37 30 44 38 47
Route #3: 34 19 7 41 48
Route #4: 42 2 49 43 26
Route #5: 24 13 15 8 45
Route #6: 25 11 14 12 4 3
Route #7: 18 21 35 39 10 23 17
Route #8: 20 50 33 31 46 1 29
Route #9: 9 36 6 32
Cost 10512786.000000